NAME          DCAP_3_4_2_500_SS477
ROWS
 N  OBJ
 L  CON1
 L  CON2
 L  CON3
 L  CON4
 L  CON5
 L  CON6
 L  CON7
 L  CON8
 L  CON9
 L  CON10
 L  CON11
 L  CON12
 E  CON13
 E  CON14
 E  CON15
 E  CON16
 E  CON17
 E  CON18
 E  CON19
 E  CON20
COLUMNS
    x[1,1]    OBJ       6.180167      CON1      1.000000    
    x[1,1]    CON7      -1.000000     CON8      -1.000000   
    x[1,2]    OBJ       5.039546      CON2      1.000000    
    x[1,2]    CON8      -1.000000   
    x[2,1]    OBJ       6.732585      CON3      1.000000    
    x[2,1]    CON9      -1.000000     CON10     -1.000000   
    x[2,2]    OBJ       7.443064      CON4      1.000000    
    x[2,2]    CON10     -1.000000   
    x[3,1]    OBJ       6.563535      CON5      1.000000    
    x[3,1]    CON11     -1.000000     CON12     -1.000000   
    x[3,2]    OBJ       6.054841      CON6      1.000000    
    x[3,2]    CON12     -1.000000   
    MARKER    'MARKER'                'INTORG'
    u[1,1]    OBJ       48.076654     CON1      -1.000000   
    u[1,2]    OBJ       49.466655     CON2      -1.000000   
    u[2,1]    OBJ       49.996186     CON3      -1.000000   
    u[2,2]    OBJ       32.230043     CON4      -1.000000   
    u[3,1]    OBJ       20.066487     CON5      -1.000000   
    u[3,2]    OBJ       27.484319     CON6      -1.000000   
    y[1,1,1]  OBJ       7.807351      CON7      1.074124    
    y[1,1,1]  CON13     1.000000    
    y[1,1,2]  OBJ       5.352425      CON8      1.082144    
    y[1,1,2]  CON14     1.000000    
    y[1,2,1]  OBJ       5.438847      CON7      0.560682    
    y[1,2,1]  CON15     1.000000    
    y[1,2,2]  OBJ       7.865347      CON8      1.277438    
    y[1,2,2]  CON16     1.000000    
    y[1,3,1]  OBJ       5.879211      CON7      0.550806    
    y[1,3,1]  CON17     1.000000    
    y[1,3,2]  OBJ       5.873945      CON8      0.767627    
    y[1,3,2]  CON18     1.000000    
    y[1,4,1]  OBJ       6.381709      CON7      1.133557    
    y[1,4,1]  CON19     1.000000    
    y[1,4,2]  OBJ       5.698937      CON8      0.971462    
    y[1,4,2]  CON20     1.000000    
    y[2,1,1]  OBJ       9.053120      CON9      1.074124    
    y[2,1,1]  CON13     1.000000    
    y[2,1,2]  OBJ       5.880655      CON10     1.082144    
    y[2,1,2]  CON14     1.000000    
    y[2,2,1]  OBJ       7.392379      CON9      0.560682    
    y[2,2,1]  CON15     1.000000    
    y[2,2,2]  OBJ       7.277051      CON10     1.277438    
    y[2,2,2]  CON16     1.000000    
    y[2,3,1]  OBJ       7.162345      CON9      0.550806    
    y[2,3,1]  CON17     1.000000    
    y[2,3,2]  OBJ       7.153718      CON10     0.767627    
    y[2,3,2]  CON18     1.000000    
    y[2,4,1]  OBJ       7.651651      CON9      1.133557    
    y[2,4,1]  CON19     1.000000    
    y[2,4,2]  OBJ       5.317338      CON10     0.971462    
    y[2,4,2]  CON20     1.000000    
    y[3,1,1]  OBJ       6.483980      CON11     1.074124    
    y[3,1,1]  CON13     1.000000    
    y[3,1,2]  OBJ       7.315206      CON12     1.082144    
    y[3,1,2]  CON14     1.000000    
    y[3,2,1]  OBJ       5.944626      CON11     0.560682    
    y[3,2,1]  CON15     1.000000    
    y[3,2,2]  OBJ       5.504634      CON12     1.277438    
    y[3,2,2]  CON16     1.000000    
    y[3,3,1]  OBJ       8.757753      CON11     0.550806    
    y[3,3,1]  CON17     1.000000    
    y[3,3,2]  OBJ       8.852132      CON12     0.767627    
    y[3,3,2]  CON18     1.000000    
    y[3,4,1]  OBJ       6.625962      CON11     1.133557    
    y[3,4,1]  CON19     1.000000    
    y[3,4,2]  OBJ       6.375672      CON12     0.971462    
    y[3,4,2]  CON20     1.000000    
    z[1,1]    OBJ       679.533831    CON13     1.000000    
    z[1,2]    OBJ       974.042911    CON14     1.000000    
    z[2,1]    OBJ       646.432222    CON15     1.000000    
    z[2,2]    OBJ       569.727974    CON16     1.000000    
    z[3,1]    OBJ       611.050597    CON17     1.000000    
    z[3,2]    OBJ       502.274403    CON18     1.000000    
    z[4,1]    OBJ       778.666132    CON19     1.000000    
    z[4,2]    OBJ       522.665502    CON20     1.000000    
    MARKER    'MARKER'                 'INTEND'
RHS
    RHS       CON1      -0.000000     CON2      -0.000000   
    RHS       CON3      -0.000000     CON4      -0.000000   
    RHS       CON5      -0.000000     CON6      -0.000000   
    RHS       CON7      -0.000000     CON8      -0.000000   
    RHS       CON9      -0.000000     CON10     -0.000000   
    RHS       CON11     -0.000000     CON12     -0.000000   
    RHS       CON13     1.000000      CON14     1.000000    
    RHS       CON15     1.000000      CON16     1.000000    
    RHS       CON17     1.000000      CON18     1.000000    
    RHS       CON19     1.000000      CON20     1.000000    
BOUNDS
 BV BOUND     u[1,1]  
 BV BOUND     u[1,2]  
 BV BOUND     u[2,1]  
 BV BOUND     u[2,2]  
 BV BOUND     u[3,1]  
 BV BOUND     u[3,2]  
 BV BOUND     y[1,1,1]
 BV BOUND     y[1,1,2]
 BV BOUND     y[1,2,1]
 BV BOUND     y[1,2,2]
 BV BOUND     y[1,3,1]
 BV BOUND     y[1,3,2]
 BV BOUND     y[1,4,1]
 BV BOUND     y[1,4,2]
 BV BOUND     y[2,1,1]
 BV BOUND     y[2,1,2]
 BV BOUND     y[2,2,1]
 BV BOUND     y[2,2,2]
 BV BOUND     y[2,3,1]
 BV BOUND     y[2,3,2]
 BV BOUND     y[2,4,1]
 BV BOUND     y[2,4,2]
 BV BOUND     y[3,1,1]
 BV BOUND     y[3,1,2]
 BV BOUND     y[3,2,1]
 BV BOUND     y[3,2,2]
 BV BOUND     y[3,3,1]
 BV BOUND     y[3,3,2]
 BV BOUND     y[3,4,1]
 BV BOUND     y[3,4,2]
 BV BOUND     z[1,1]  
 BV BOUND     z[1,2]  
 BV BOUND     z[2,1]  
 BV BOUND     z[2,2]  
 BV BOUND     z[3,1]  
 BV BOUND     z[3,2]  
 BV BOUND     z[4,1]  
 BV BOUND     z[4,2]  
ENDATA
